(set-info :source  loris-7.ddns.comp.nus.edu.sg/~project/hip/) 
;Variables declarations
(declare-fun right_151_1791_primed () Int)
(declare-fun left_151_1790_primed () Int)
(declare-fun height_151_1789_primed () Int)
(declare-fun val_151_1788_primed () Int)
(declare-fun Anon_2628 () Int)
(declare-fun right_150_2589 () Int)
(declare-fun Anon_19 () Int)
(declare-fun left_149_2586 () Int)
(declare-fun Anon_18 () Int)
(declare-fun x () Int)
(declare-fun y_primed () Int)
(declare-fun z_primed () Int)
(declare-fun y () Int)
(declare-fun n_2627 () Int)
(declare-fun ny () Int)
(declare-fun my () Int)
(declare-fun n1_2631 () Int)
(declare-fun m1_2630 () Int)
(declare-fun p_2629 () Int)
(declare-fun n2_2634 () Int)
(declare-fun m2_2633 () Int)
(declare-fun q_2632 () Int)
(declare-fun ny_2585 () Int)
(declare-fun mz () Int)
(declare-fun z () Int)
(declare-fun x_primed () Int)
;Relations declarations
;Axioms assertions
;Antecedent
(assert (= right_151_1791_primed q_2632))
(assert (= left_151_1790_primed p_2629))
(assert (= height_151_1789_primed n_2627))
(assert (= val_151_1788_primed Anon_2628))
(assert (= right_150_2589 Anon_19))
(assert (= left_149_2586 Anon_18))
(assert (= x_primed x))
(assert (= y_primed y))
(assert (= z_primed z))
(assert (> y 0))
(assert (= ny_2585 ny))
(assert (= n_2627 ny))
(assert (exists ((max_32 Int)) (and (= ny (+ 1 max_32)) (or (and (= max_32 n1_2631) (>= n1_2631 n2_2634)) (and (= max_32 n2_2634) (< n1_2631 n2_2634))))))
(assert (<= n1_2631 (+ 1 n2_2634)))
(assert (<= (+ 0 n2_2634) (+ n1_2631 1)))
(assert (= my (+ (+ m2_2633 1) m1_2630)))
(assert (or (and (and (< p_2629 1) (= m1_2630 0)) (= n1_2631 0)) (and (and (<= 1 n1_2631) (<= 1 m1_2630)) (> p_2629 0))))
(assert (or (and (and (< q_2632 1) (= m2_2633 0)) (= n2_2634 0)) (and (and (<= 1 n2_2634) (<= 1 m2_2633)) (> q_2632 0))))
(assert (or (and (and (< z 1) (= mz 0)) (= ny_2585 0)) (and (and (<= 1 ny_2585) (<= 1 mz)) (> z 0))))
(assert (= x_primed 1))
;Negation of Consequence
(assert (not false))
(check-sat)